NAME : local_9
TYPE : ATSP
DIMENSION : 23
EDGE_WEIGHT_TYPE : EXPLICIT
EDGE_WEIGHT_FORMAT : FULL_MATRIX
EDGE_WEIGHT_SECTION
0 957 10000000 876 10000000 394 10000000 10000000 10000000 737 799 882 10000000 10000000 944 10000000 796 103 610 845 827 10000000 457 
0 0 905 644 847 10000000 493 793 10000000 645 10000000 10000000 10000000 10000000 255 703 10000000 951 10000000 10000000 10000000 10000000 10000000 
0 905 0 10000000 265 10000000 981 946 874 10000000 10000000 10000000 529 473 10000000 10000000 10000000 10000000 10000000 10000000 10000000 768 10000000 
0 644 10000000 0 10000000 1081 621 10000000 10000000 201 10000000 10000000 10000000 10000000 413 698 10000000 897 10000000 10000000 10000000 10000000 10000000 
0 847 265 10000000 0 10000000 800 699 985 10000000 10000000 10000000 395 438 10000000 940 10000000 10000000 10000000 10000000 10000000 893 10000000 
0 10000000 10000000 1135 10000000 0 10000000 10000000 10000000 895 676 694 10000000 10000000 10000000 10000000 743 475 457 641 505 10000000 540 
0 493 981 621 800 10000000 0 413 10000000 759 10000000 10000000 10000000 10000000 492 233 10000000 10000000 10000000 10000000 10000000 10000000 10000000 
0 793 946 10000000 699 10000000 413 0 10000000 10000000 10000000 10000000 862 10000000 856 363 10000000 10000000 10000000 10000000 10000000 10000000 10000000 
0 10000000 874 10000000 985 10000000 10000000 10000000 0 10000000 10000000 10000000 969 694 10000000 10000000 990 10000000 10000000 10000000 10000000 402 10000000 
0 645 10000000 201 10000000 895 759 10000000 10000000 0 10000000 10000000 10000000 10000000 419 869 10000000 745 10000000 10000000 10000000 10000000 10000000 
0 10000000 10000000 10000000 10000000 676 10000000 10000000 10000000 10000000 0 274 10000000 10000000 10000000 10000000 219 921 267 281 458 683 488 
0 10000000 10000000 10000000 10000000 694 10000000 10000000 10000000 10000000 274 0 10000000 10000000 10000000 10000000 488 1056 274 128 359 802 702 
0 10000000 529 10000000 395 10000000 10000000 862 969 10000000 10000000 10000000 0 274 10000000 10000000 10000000 10000000 10000000 10000000 10000000 10000000 10000000 
0 10000000 473 10000000 438 10000000 10000000 10000000 694 10000000 10000000 10000000 274 0 10000000 10000000 10000000 10000000 10000000 10000000 10000000 787 10000000 
0 255 10000000 413 10000000 10000000 492 856 10000000 419 10000000 10000000 10000000 10000000 0 658 10000000 945 10000000 10000000 10000000 10000000 10000000 
0 703 10000000 698 940 10000000 233 363 10000000 869 10000000 10000000 10000000 10000000 658 0 10000000 10000000 10000000 10000000 10000000 10000000 10000000 
0 10000000 10000000 10000000 10000000 743 10000000 10000000 990 10000000 219 488 10000000 10000000 10000000 10000000 0 845 408 496 642 613 374 
0 960 10000000 897 10000000 475 10000000 10000000 10000000 745 902 1063 10000000 10000000 925 10000000 843 0 746 934 916 10000000 511 
0 10000000 10000000 10000000 10000000 457 10000000 10000000 10000000 10000000 267 274 10000000 10000000 10000000 10000000 408 696 0 239 352 867 475 
0 10000000 10000000 10000000 10000000 641 10000000 10000000 10000000 10000000 281 128 10000000 10000000 10000000 10000000 496 934 239 0 304 850 681 
0 10000000 10000000 10000000 10000000 505 10000000 10000000 10000000 10000000 458 359 10000000 10000000 10000000 10000000 642 916 352 304 0 10000000 708 
0 10000000 768 10000000 893 10000000 10000000 10000000 402 10000000 683 802 10000000 787 10000000 10000000 613 10000000 867 850 10000000 0 921 
0 10000000 10000000 10000000 10000000 10000000 10000000 10000000 10000000 10000000 10000000 10000000 10000000 10000000 10000000 10000000 10000000 10000000 10000000 10000000 10000000 10000000 0 
EOF